c description: Random 3-CNF over 21 variables and 89 clauses
c generator: CNFgen (0.9.2)
c copyright: (C) 2012-2022 Massimo Lauria <massimo.lauria@uniroma1.it>
c url: https://massimolauria.net/cnfgen
c command line: cnfgen --output CNF_4.28/21_bit_89_419.cnf randkcnf 3 21 89
c
p cnf 21 89
-10 12 -17 0
-2 3 21 0
3 9 -21 0
1 2 -3 0
1 12 -19 0
6 -8 -9 0
3 6 -14 0
-6 11 -19 0
-2 -6 -14 0
-3 -16 17 0
3 -13 21 0
1 -5 15 0
-3 10 21 0
-2 -7 -14 0
1 -6 -7 0
7 -9 10 0
-2 -10 21 0
-7 -10 13 0
-3 -11 17 0
4 -14 21 0
-9 -15 20 0
10 -12 16 0
3 7 -13 0
7 -10 -15 0
-1 -11 -12 0
6 -15 20 0
2 8 20 0
-10 -11 -16 0
5 13 -21 0
-12 15 21 0
-5 -15 -17 0
-5 -7 -16 0
-1 -19 -21 0
1 15 16 0
-5 14 -21 0
-3 11 -15 0
2 5 20 0
-1 9 -21 0
-8 -10 19 0
-3 13 -19 0
1 -6 -9 0
-9 -10 -18 0
12 -19 21 0
-9 -16 -20 0
11 12 21 0
-1 -17 19 0
-1 7 19 0
4 13 -18 0
3 7 -17 0
-1 -4 18 0
-9 12 -18 0
1 9 13 0
-3 -4 -18 0
2 -9 -14 0
8 13 -21 0
-9 12 20 0
15 19 -20 0
-4 -12 -15 0
-11 14 21 0
-5 12 13 0
-1 -8 19 0
7 8 20 0
-8 -9 -21 0
-2 3 -10 0
-12 13 -18 0
-1 -4 -17 0
1 10 17 0
3 15 -16 0
-1 4 15 0
3 6 -15 0
5 -7 16 0
-15 -17 21 0
5 7 17 0
-1 2 10 0
-2 3 5 0
-2 -15 -18 0
8 -14 -21 0
3 -18 -20 0
6 15 19 0
-14 15 16 0
-6 10 -17 0
5 -9 17 0
-3 6 10 0
-4 7 -8 0
4 5 17 0
-1 -16 18 0
-5 10 -16 0
-3 11 -18 0
-5 8 -20 0
